33D32945 STP File, STP Format Version 1.0
Section Comment
Name    "hc7u"
Creator "I. Rosseti, M. Poggi de Aragao, C.C. Ribeiro, E. Uchoa, and R.F.Werneck"
Remark  "Hypercube instance"
End

SECTION Graph
Nodes 128
Edges 448
E 1 65 1
E 1 33 1
E 1 17 1
E 1 9 1
E 1 5 1
E 1 3 1
E 1 2 1
E 2 66 1
E 2 34 1
E 2 18 1
E 2 10 1
E 2 6 1
E 2 4 1
E 3 67 1
E 3 35 1
E 3 19 1
E 3 11 1
E 3 7 1
E 3 4 1
E 4 68 1
E 4 36 1
E 4 20 1
E 4 12 1
E 4 8 1
E 5 69 1
E 5 37 1
E 5 21 1
E 5 13 1
E 5 7 1
E 5 6 1
E 6 70 1
E 6 38 1
E 6 22 1
E 6 14 1
E 6 8 1
E 7 71 1
E 7 39 1
E 7 23 1
E 7 15 1
E 7 8 1
E 8 72 1
E 8 40 1
E 8 24 1
E 8 16 1
E 9 73 1
E 9 41 1
E 9 25 1
E 9 13 1
E 9 11 1
E 9 10 1
E 10 74 1
E 10 42 1
E 10 26 1
E 10 14 1
E 10 12 1
E 11 75 1
E 11 43 1
E 11 27 1
E 11 15 1
E 11 12 1
E 12 76 1
E 12 44 1
E 12 28 1
E 12 16 1
E 13 77 1
E 13 45 1
E 13 29 1
E 13 15 1
E 13 14 1
E 14 78 1
E 14 46 1
E 14 30 1
E 14 16 1
E 15 79 1
E 15 47 1
E 15 31 1
E 15 16 1
E 16 80 1
E 16 48 1
E 16 32 1
E 17 81 1
E 17 49 1
E 17 25 1
E 17 21 1
E 17 19 1
E 17 18 1
E 18 82 1
E 18 50 1
E 18 26 1
E 18 22 1
E 18 20 1
E 19 83 1
E 19 51 1
E 19 27 1
E 19 23 1
E 19 20 1
E 20 84 1
E 20 52 1
E 20 28 1
E 20 24 1
E 21 85 1
E 21 53 1
E 21 29 1
E 21 23 1
E 21 22 1
E 22 86 1
E 22 54 1
E 22 30 1
E 22 24 1
E 23 87 1
E 23 55 1
E 23 31 1
E 23 24 1
E 24 88 1
E 24 56 1
E 24 32 1
E 25 89 1
E 25 57 1
E 25 29 1
E 25 27 1
E 25 26 1
E 26 90 1
E 26 58 1
E 26 30 1
E 26 28 1
E 27 91 1
E 27 59 1
E 27 31 1
E 27 28 1
E 28 92 1
E 28 60 1
E 28 32 1
E 29 93 1
E 29 61 1
E 29 31 1
E 29 30 1
E 30 94 1
E 30 62 1
E 30 32 1
E 31 95 1
E 31 63 1
E 31 32 1
E 32 96 1
E 32 64 1
E 33 97 1
E 33 49 1
E 33 41 1
E 33 37 1
E 33 35 1
E 33 34 1
E 34 98 1
E 34 50 1
E 34 42 1
E 34 38 1
E 34 36 1
E 35 99 1
E 35 51 1
E 35 43 1
E 35 39 1
E 35 36 1
E 36 100 1
E 36 52 1
E 36 44 1
E 36 40 1
E 37 101 1
E 37 53 1
E 37 45 1
E 37 39 1
E 37 38 1
E 38 102 1
E 38 54 1
E 38 46 1
E 38 40 1
E 39 103 1
E 39 55 1
E 39 47 1
E 39 40 1
E 40 104 1
E 40 56 1
E 40 48 1
E 41 105 1
E 41 57 1
E 41 45 1
E 41 43 1
E 41 42 1
E 42 106 1
E 42 58 1
E 42 46 1
E 42 44 1
E 43 107 1
E 43 59 1
E 43 47 1
E 43 44 1
E 44 108 1
E 44 60 1
E 44 48 1
E 45 109 1
E 45 61 1
E 45 47 1
E 45 46 1
E 46 110 1
E 46 62 1
E 46 48 1
E 47 111 1
E 47 63 1
E 47 48 1
E 48 112 1
E 48 64 1
E 49 113 1
E 49 57 1
E 49 53 1
E 49 51 1
E 49 50 1
E 50 114 1
E 50 58 1
E 50 54 1
E 50 52 1
E 51 115 1
E 51 59 1
E 51 55 1
E 51 52 1
E 52 116 1
E 52 60 1
E 52 56 1
E 53 117 1
E 53 61 1
E 53 55 1
E 53 54 1
E 54 118 1
E 54 62 1
E 54 56 1
E 55 119 1
E 55 63 1
E 55 56 1
E 56 120 1
E 56 64 1
E 57 121 1
E 57 61 1
E 57 59 1
E 57 58 1
E 58 122 1
E 58 62 1
E 58 60 1
E 59 123 1
E 59 63 1
E 59 60 1
E 60 124 1
E 60 64 1
E 61 125 1
E 61 63 1
E 61 62 1
E 62 126 1
E 62 64 1
E 63 127 1
E 63 64 1
E 64 128 1
E 65 97 1
E 65 81 1
E 65 73 1
E 65 69 1
E 65 67 1
E 65 66 1
E 66 98 1
E 66 82 1
E 66 74 1
E 66 70 1
E 66 68 1
E 67 99 1
E 67 83 1
E 67 75 1
E 67 71 1
E 67 68 1
E 68 100 1
E 68 84 1
E 68 76 1
E 68 72 1
E 69 101 1
E 69 85 1
E 69 77 1
E 69 71 1
E 69 70 1
E 70 102 1
E 70 86 1
E 70 78 1
E 70 72 1
E 71 103 1
E 71 87 1
E 71 79 1
E 71 72 1
E 72 104 1
E 72 88 1
E 72 80 1
E 73 105 1
E 73 89 1
E 73 77 1
E 73 75 1
E 73 74 1
E 74 106 1
E 74 90 1
E 74 78 1
E 74 76 1
E 75 107 1
E 75 91 1
E 75 79 1
E 75 76 1
E 76 108 1
E 76 92 1
E 76 80 1
E 77 109 1
E 77 93 1
E 77 79 1
E 77 78 1
E 78 110 1
E 78 94 1
E 78 80 1
E 79 111 1
E 79 95 1
E 79 80 1
E 80 112 1
E 80 96 1
E 81 113 1
E 81 89 1
E 81 85 1
E 81 83 1
E 81 82 1
E 82 114 1
E 82 90 1
E 82 86 1
E 82 84 1
E 83 115 1
E 83 91 1
E 83 87 1
E 83 84 1
E 84 116 1
E 84 92 1
E 84 88 1
E 85 117 1
E 85 93 1
E 85 87 1
E 85 86 1
E 86 118 1
E 86 94 1
E 86 88 1
E 87 119 1
E 87 95 1
E 87 88 1
E 88 120 1
E 88 96 1
E 89 121 1
E 89 93 1
E 89 91 1
E 89 90 1
E 90 122 1
E 90 94 1
E 90 92 1
E 91 123 1
E 91 95 1
E 91 92 1
E 92 124 1
E 92 96 1
E 93 125 1
E 93 95 1
E 93 94 1
E 94 126 1
E 94 96 1
E 95 127 1
E 95 96 1
E 96 128 1
E 97 113 1
E 97 105 1
E 97 101 1
E 97 99 1
E 97 98 1
E 98 114 1
E 98 106 1
E 98 102 1
E 98 100 1
E 99 115 1
E 99 107 1
E 99 103 1
E 99 100 1
E 100 116 1
E 100 108 1
E 100 104 1
E 101 117 1
E 101 109 1
E 101 103 1
E 101 102 1
E 102 118 1
E 102 110 1
E 102 104 1
E 103 119 1
E 103 111 1
E 103 104 1
E 104 120 1
E 104 112 1
E 105 121 1
E 105 109 1
E 105 107 1
E 105 106 1
E 106 122 1
E 106 110 1
E 106 108 1
E 107 123 1
E 107 111 1
E 107 108 1
E 108 124 1
E 108 112 1
E 109 125 1
E 109 111 1
E 109 110 1
E 110 126 1
E 110 112 1
E 111 127 1
E 111 112 1
E 112 128 1
E 113 121 1
E 113 117 1
E 113 115 1
E 113 114 1
E 114 122 1
E 114 118 1
E 114 116 1
E 115 123 1
E 115 119 1
E 115 116 1
E 116 124 1
E 116 120 1
E 117 125 1
E 117 119 1
E 117 118 1
E 118 126 1
E 118 120 1
E 119 127 1
E 119 120 1
E 120 128 1
E 121 125 1
E 121 123 1
E 121 122 1
E 122 126 1
E 122 124 1
E 123 127 1
E 123 124 1
E 124 128 1
E 125 127 1
E 125 126 1
E 126 128 1
E 127 128 1
End

Section Terminals
Terminals 64
T 1
T 4
T 6
T 7
T 10
T 11
T 13
T 16
T 18
T 19
T 21
T 24
T 25
T 28
T 30
T 31
T 34
T 35
T 37
T 40
T 41
T 44
T 46
T 47
T 49
T 52
T 54
T 55
T 58
T 59
T 61
T 64
T 66
T 67
T 69
T 72
T 73
T 76
T 78
T 79
T 81
T 84
T 86
T 87
T 90
T 91
T 93
T 96
T 97
T 100
T 102
T 103
T 106
T 107
T 109
T 112
T 114
T 115
T 117
T 120
T 121
T 124
T 126
T 127
End

EOF
